row=9;
column=9;
Board=[|0,0,1,0,0,0,0,0,0|0,6,0,9,0,0,1,5,4|0,0,0,0,0,8,0,9,0|2,0,0,0,7,3,0,8,0|0,0,0,0,0,4,0,2,0|0,0,0,0,0,0,0,0,7|0,0,0,3,4,0,5,1,9|6,8,0,0,1,9,4,0,0|0,0,0,2,9,0,0,0,0|];
Region=[|1,1,1,1,2,2,2,2,3|1,1,1,2,2,3,3,3,3|1,1,4,2,2,3,3,3,3|4,4,4,2,5,5,6,6,6|4,4,4,5,5,6,6,6,6|4,5,5,5,8,5,5,6,6|4,8,8,8,8,8,9,9,9|7,7,7,7,8,8,9,9,9|7,7,7,7,7,8,9,9,9|];
OE=[|1,1,1,1,0,1,0,0,0|1,0,0,1,1,0,1,1,0|0,0,0,1,1,0,1,1,1|0,1,0,0,1,1,1,0,1|1,1,1,0,0,0,1,0,1|1,1,1,0,0,1,0,0,1|0,1,0,1,0,0,1,1,1|0,0,1,1,1,1,0,1,0|1,0,1,0,1,1,0,1,0|];
